42.0 68.0 0
77.0 97.0 5
28.0 64.0 23
77.0 39.0 14
32.0 33.0 13
32.0 8.0 8
42.0 92.0 18
8.0 3.0 19
7.0 14.0 10
82.0 17.0 18
48.0 13.0 20
53.0 82.0 5
39.0 27.0 9
7.0 24.0 23
67.0 98.0 9
54.0 52.0 18
72.0 43.0 10
73.0 3.0 24
59.0 77.0 13
58.0 97.0 14
23.0 43.0 8
68.0 98.0 10
47.0 62.0 19
52.0 72.0 14
32.0 88.0 13
39.0 7.0 14
17.0 8.0 2
38.0 7.0 23
58.0 74.0 15
82.0 67.0 8
42.0 7.0 20
68.0 82.0 24
7.0 48.0 3
